\* Pricing_problem *\
Minimize
OBJ: - 0.125 M_0,1 - 0.25 M_0,2 - 0.125 M_0,3 - 0.25 M_1,0 - 0.125 M_1,2
 - 0.125 M_2,1 - 0.375 M_2,2 - 0.25 M_2,3 - 0.5 M_3,0 - 0.25 M_3,1
 - 0.125 M_3,2 - 0.375 M_3,3 - 0.125 M_4,2 - 0.375 M_5,1 - 0.125 M_5,2
 - 0.25 M_5,3 - 0.125 M_6,1 - 0.25 M_6,3 - 0.25 M_7,1 - 0.125 M_7,2
 - 0.25 M_7,3
Subject To
LESS_CAP_0: M_1,0 + M_3,0 <= 2
LESS_CAP_1: M_0,1 + M_2,1 + M_3,1 + M_5,1 + M_6,1 + M_7,1 <= 1
LESS_CAP_2: M_0,2 + M_1,2 + M_2,2 + M_3,2 + M_4,2 + M_5,2 + M_7,2 <= 3
LESS_CAP_3: M_0,3 + M_2,3 + M_3,3 + M_5,3 + M_6,3 + M_7,3 <= 2
LESS_ONE_0: M_0,1 + M_0,2 + M_0,3 <= 1
LESS_ONE_1: M_1,0 + M_1,2 <= 1
LESS_ONE_2: M_2,1 + M_2,2 + M_2,3 <= 1
LESS_ONE_3: M_3,0 + M_3,1 + M_3,2 + M_3,3 <= 1
LESS_ONE_4: M_4,2 <= 1
LESS_ONE_5: M_5,1 + M_5,2 + M_5,3 <= 1
LESS_ONE_6: M_6,1 + M_6,3 <= 1
LESS_ONE_7: M_7,1 + M_7,2 + M_7,3 <= 1
STAB_0_1: M_0,1 + M_0,2 + M_0,3 + M_6,1 >= 1
STAB_0_2: 3 M_0,2 + 3 M_0,3 + M_1,2 + M_5,2 + M_7,2 >= 3
STAB_0_3: 2 M_0,3 + M_2,3 + M_3,3 + M_5,3 >= 2
STAB_1_0: 2 M_1,0 + 2 M_1,2 >= 2
STAB_1_2: 3 M_1,2 + M_5,2 >= 3
STAB_2_1: M_0,1 + M_2,1 + M_6,1 >= 1
STAB_2_2: M_0,2 + M_1,2 + 3 M_2,1 + 3 M_2,2 + 3 M_2,3 + M_3,2 + M_4,2 + M_5,2
 + M_7,2 >= 3
STAB_2_3: 2 M_2,1 + 2 M_2,3 + M_3,3 >= 2
STAB_3_0: M_1,0 + 2 M_3,0 + 2 M_3,1 + 2 M_3,2 + 2 M_3,3 >= 2
STAB_3_1: M_0,1 + M_2,1 + M_3,1 + M_3,2 + M_5,1 + M_6,1 + M_7,1 >= 1
STAB_3_2: M_0,2 + M_1,2 + M_2,2 + 3 M_3,2 + M_4,2 + M_5,2 + M_7,2 >= 3
STAB_3_3: M_2,3 + 2 M_3,1 + 2 M_3,2 + 2 M_3,3 >= 2
STAB_4_2: M_0,2 + M_1,2 + M_2,2 + M_3,2 + 3 M_4,2 + M_5,2 + M_7,2 >= 3
STAB_5_1: M_0,1 + M_2,1 + M_3,1 + M_5,1 + M_5,2 + M_5,3 + M_6,1 + M_7,1 >= 1
STAB_5_2: M_1,2 + 3 M_5,2 >= 3
STAB_5_3: M_0,3 + M_2,3 + M_3,3 + 2 M_5,2 + 2 M_5,3 >= 2
STAB_6_1: M_0,1 + M_6,1 >= 1
STAB_6_3: M_0,3 + M_2,3 + M_3,3 + M_5,3 + 2 M_6,1 + 2 M_6,3 + M_7,3 >= 2
STAB_7_1: M_0,1 + M_2,1 + M_3,1 + M_5,1 + M_6,1 + M_7,1 + M_7,2 >= 1
STAB_7_2: M_0,2 + M_1,2 + M_5,2 + 3 M_7,2 >= 3
STAB_7_3: M_0,3 + M_2,3 + M_3,3 + M_5,3 + M_6,3 + 2 M_7,1 + 2 M_7,2 + 2 M_7,3
 >= 2
Bounds
 __dummy = 0
Binaries
M_0,1
M_0,2
M_0,3
M_1,0
M_1,2
M_2,1
M_2,2
M_2,3
M_3,0
M_3,1
M_3,2
M_3,3
M_4,2
M_5,1
M_5,2
M_5,3
M_6,1
M_6,3
M_7,1
M_7,2
M_7,3
End
